<number of tasks>
20

<cycle time>
1000

<order strength>
0,2


<task times>
1 458
2 327
3 363
4 555
5 294
6 373
7 463
8 413
9 413
10 332
11 330
12 432
13 629
14 517
15 576
16 458
17 464
18 608
19 278
20 391

<precedence relations>
1,5
2,6
3,8
4,7
4,9
5,10
6,13
7,11
8,12
10,16
11,14
12,15
14,17
15,18
16,19
16,20

<end>
